(declare-const a Bool)
(declare-const e Bool)
(declare-const c Bool)
(declare-const d Bool)
(declare-const b Bool)
(declare-const f Bool)
(assert (ite (=> (and a e true) a) (xor c d) (= b (or b (and a e true)a e true) a f))))
(exit)